min: c;

c = 3.1721364673863 * u4_t1_h1 + 3.45220584596398 * u4_t1_h2 + 3.73642122170637 * u4_t1_h3 + 3.19139627476077 * u4_t1_h4 + 3.19139627476077 * u4_t10_h4 + 3.48676064790369 * u4_t1_h5 + 3.48676064790369 * u4_t10_h5 + 4.22940993859533 * u4_t1_h6 + 4.22940993859533 * u4_t10_h6 + 3.6382811870942 * u4_t1_h7 + 3.6382811870942 * u4_t10_h7 + 5.10212484141993 * u4_t1_h8 + 5.10212484141993 * u4_t9_h8 + 5.10212484141993 * u4_t10_h8 + 4.93929378924416 * u4_t9_h9 + 4.93929378924416 * u4_t10_h9 + 5.61146559234413 * u4_t9_h10 + 5.61146559234413 * u4_t10_h10 + 4.29969468030008 * u4_t2_h11 + 4.29969468030008 * u4_t4_h11 + 4.29969468030008 * u4_t9_h11 + 4.29969468030008 * u4_t10_h11 + 6.11540886553968 * u4_t2_h12 + 6.11540886553968 * u4_t3_h12 + 6.11540886553968 * u4_t4_h12 + 6.11540886553968 * u4_t8_h12 + 6.11540886553968 * u4_t9_h12 + 6.11540886553968 * u4_t10_h12 + 4.34492279945755 * u4_t2_h13 + 4.34492279945755 * u4_t3_h13 + 4.34492279945755 * u4_t4_h13 + 4.34492279945755 * u4_t8_h13 + 4.34492279945755 * u4_t9_h13 + 5.68622484327464 * u4_t2_h14 + 5.68622484327464 * u4_t3_h14 + 5.68622484327464 * u4_t4_h14 + 5.68622484327464 * u4_t8_h14 + 5.68622484327464 * u4_t9_h14 + 6.02586954626492 * u4_t2_h15 + 6.02586954626492 * u4_t3_h15 + 6.02586954626492 * u4_t4_h15 + 6.02586954626492 * u4_t8_h15 + 6.02586954626492 * u4_t9_h15 + 6.18998784293662 * u4_t2_h16 + 6.18998784293662 * u4_t3_h16 + 6.18998784293662 * u4_t4_h16 + 6.18998784293662 * u4_t5_h16 + 6.18998784293662 * u4_t8_h16 + 6.18998784293662 * u4_t9_h16 + 6.13258402071867 * u4_t2_h17 + 6.13258402071867 * u4_t3_h17 + 6.13258402071867 * u4_t5_h17 + 6.13258402071867 * u4_t8_h17 + 6.13258402071867 * u4_t9_h17 + 6.04134644913819 * u4_t2_h18 + 6.04134644913819 * u4_t3_h18 + 6.04134644913819 * u4_t5_h18 + 6.04134644913819 * u4_t8_h18 + 6.04134644913819 * u4_t9_h18 + 5.39238431764714 * u4_t2_h19 + 5.39238431764714 * u4_t3_h19 + 5.39238431764714 * u4_t6_h19 + 5.39238431764714 * u4_t8_h19 + 5.39238431764714 * u4_t9_h19 + 5.3227778139129 * u4_t2_h20 + 5.3227778139129 * u4_t6_h20 + 5.3227778139129 * u4_t9_h20 + 4.89149455646532 * u4_t6_h21 + 5.31183605456781 * u4_t6_h22 + 5.31183605456781 * u4_t7_h22 + 5.6336736725157 * u4_t6_h23 + 5.6336736725157 * u4_t7_h23;
0 <= u4_t1_h1 <= 1;
0 <= u4_t1_h2 <= 1;
0 <= u4_t1_h3 <= 1;
0 <= u4_t1_h4 <= 1;
0 <= u4_t1_h5 <= 1;
0 <= u4_t1_h6 <= 1;
0 <= u4_t1_h7 <= 1;
0 <= u4_t1_h8 <= 1;
u4_t1_h1 + u4_t1_h2 + u4_t1_h3 + u4_t1_h4 + u4_t1_h5 + u4_t1_h6 + u4_t1_h7 + u4_t1_h8 = 1;
0 <= u4_t2_h11 <= 1;
0 <= u4_t2_h12 <= 1;
0 <= u4_t2_h13 <= 1;
0 <= u4_t2_h14 <= 1;
0 <= u4_t2_h15 <= 1;
0 <= u4_t2_h16 <= 1;
0 <= u4_t2_h17 <= 1;
0 <= u4_t2_h18 <= 1;
0 <= u4_t2_h19 <= 1;
0 <= u4_t2_h20 <= 1;
u4_t2_h11 + u4_t2_h12 + u4_t2_h13 + u4_t2_h14 + u4_t2_h15 + u4_t2_h16 + u4_t2_h17 + u4_t2_h18 + u4_t2_h19 + u4_t2_h20 = 2;
0 <= u4_t3_h12 <= 1;
0 <= u4_t3_h13 <= 1;
0 <= u4_t3_h14 <= 1;
0 <= u4_t3_h15 <= 1;
0 <= u4_t3_h16 <= 1;
0 <= u4_t3_h17 <= 1;
0 <= u4_t3_h18 <= 1;
0 <= u4_t3_h19 <= 1;
u4_t3_h12 + u4_t3_h13 + u4_t3_h14 + u4_t3_h15 + u4_t3_h16 + u4_t3_h17 + u4_t3_h18 + u4_t3_h19 = 3;
0 <= u4_t4_h11 <= 1;
0 <= u4_t4_h12 <= 1;
0 <= u4_t4_h13 <= 1;
0 <= u4_t4_h14 <= 1;
0 <= u4_t4_h15 <= 1;
0 <= u4_t4_h16 <= 1;
u4_t4_h11 + u4_t4_h12 + u4_t4_h13 + u4_t4_h14 + u4_t4_h15 + u4_t4_h16 = 3;
0 <= u4_t5_h16 <= 1;
0 <= u4_t5_h17 <= 1;
0 <= u4_t5_h18 <= 1;
u4_t5_h16 + u4_t5_h17 + u4_t5_h18 = 1;
0 <= u4_t6_h19 <= 1;
0 <= u4_t6_h20 <= 1;
0 <= u4_t6_h21 <= 1;
0 <= u4_t6_h22 <= 1;
0 <= u4_t6_h23 <= 1;
u4_t6_h19 + u4_t6_h20 + u4_t6_h21 + u4_t6_h22 + u4_t6_h23 = 3;
0 <= u4_t7_h22 <= 1;
0 <= u4_t7_h23 <= 1;
u4_t7_h22 + u4_t7_h23 = 1;
0 <= u4_t8_h12 <= 1;
0 <= u4_t8_h13 <= 1;
0 <= u4_t8_h14 <= 1;
0 <= u4_t8_h15 <= 1;
0 <= u4_t8_h16 <= 1;
0 <= u4_t8_h17 <= 1;
0 <= u4_t8_h18 <= 1;
0 <= u4_t8_h19 <= 1;
u4_t8_h12 + u4_t8_h13 + u4_t8_h14 + u4_t8_h15 + u4_t8_h16 + u4_t8_h17 + u4_t8_h18 + u4_t8_h19 = 2;
0 <= u4_t9_h8 <= 1;
0 <= u4_t9_h9 <= 1;
0 <= u4_t9_h10 <= 1;
0 <= u4_t9_h11 <= 1;
0 <= u4_t9_h12 <= 1;
0 <= u4_t9_h13 <= 1;
0 <= u4_t9_h14 <= 1;
0 <= u4_t9_h15 <= 1;
0 <= u4_t9_h16 <= 1;
0 <= u4_t9_h17 <= 1;
0 <= u4_t9_h18 <= 1;
0 <= u4_t9_h19 <= 1;
0 <= u4_t9_h20 <= 1;
u4_t9_h8 + u4_t9_h9 + u4_t9_h10 + u4_t9_h11 + u4_t9_h12 + u4_t9_h13 + u4_t9_h14 + u4_t9_h15 + u4_t9_h16 + u4_t9_h17 + u4_t9_h18 + u4_t9_h19 + u4_t9_h20 = 2;
0 <= u4_t10_h4 <= 1;
0 <= u4_t10_h5 <= 1;
0 <= u4_t10_h6 <= 1;
0 <= u4_t10_h7 <= 1;
0 <= u4_t10_h8 <= 1;
0 <= u4_t10_h9 <= 1;
0 <= u4_t10_h10 <= 1;
0 <= u4_t10_h11 <= 1;
0 <= u4_t10_h12 <= 1;
u4_t10_h4 + u4_t10_h5 + u4_t10_h6 + u4_t10_h7 + u4_t10_h8 + u4_t10_h9 + u4_t10_h10 + u4_t10_h11 + u4_t10_h12 = 2;
